************************************************************************
file with basedata            : md327_.bas
initial value random generator: 732940809
************************************************************************
projects                      :  1
jobs (incl. supersource/sink ):  22
horizon                       :  166
RESOURCES
  - renewable                 :  2   R
  - nonrenewable              :  2   N
  - doubly constrained        :  0   D
************************************************************************
PROJECT INFORMATION:
pronr.  #jobs rel.date duedate tardcost  MPM-Time
    1     20      0       22        2       22
************************************************************************
PRECEDENCE RELATIONS:
jobnr.    #modes  #successors   successors
   1        1          3           2   3   4
   2        3          2           6  12
   3        3          1           5
   4        3          3           7  13  18
   5        3          3           7  11  13
   6        3          3           7   8  10
   7        3          2          14  15
   8        3          3           9  20  21
   9        3          1          18
  10        3          3          14  16  17
  11        3          2          12  17
  12        3          3          14  18  20
  13        3          1          21
  14        3          1          19
  15        3          2          16  17
  16        3          2          20  21
  17        3          1          19
  18        3          1          19
  19        3          1          22
  20        3          1          22
  21        3          1          22
  22        1          0        
************************************************************************
REQUESTS/DURATIONS:
jobnr. mode duration  R 1  R 2  N 1  N 2
------------------------------------------------------------------------
  1      1     0       0    0    0    0
  2      1     3       9    7    4    0
         2     4       7    7    0    5
         3     8       7    6    4    0
  3      1     1       5    9    0    8
         2     7       3    8    0    7
         3    10       1    6    0    6
  4      1     3       8    5    0    5
         2     6       7    3    0    5
         3     9       6    3    0    3
  5      1     4       7    7    8    0
         2     7       7    6    7    0
         3     9       6    6    5    0
  6      1     2      10   10    7    0
         2     3       9    6    6    0
         3     6       7    3    6    0
  7      1     2       7   10    0    3
         2     3       7    9    9    0
         3     6       5    9    1    0
  8      1     1       7    5    4    0
         2     6       6    2    3    0
         3     9       5    2    0    7
  9      1     3       4    5    0    9
         2     6       2    5    0    7
         3     8       1    5    0    7
 10      1     7       3    5    0   10
         2     7       3    5    6    0
         3     9       2    5    3    0
 11      1     2       8    8    2    0
         2     3       8    7    2    0
         3     9       7    7    2    0
 12      1     6       6    9    1    0
         2     7       6    7    0    8
         3     8       5    4    1    0
 13      1     4       7    2    0    9
         2     8       5    1    0    8
         3    10       5    1    0    5
 14      1     2       6    9    6    0
         2     3       5    5    0    6
         3     9       5    4    0    3
 15      1     3       7    6   10    0
         2     4       7    5    9    0
         3     7       2    4    8    0
 16      1     2       8    7    0    2
         2     8       5    5    7    0
         3    10       4    4    0    2
 17      1     2      10    9    0    9
         2     4       7    7    0    6
         3     9       7    5    0    5
 18      1     3       4    7    0    9
         2     8       3    6    0    7
         3     9       3    3    0    3
 19      1     6       5    7    0    5
         2     7       4    6    0    2
         3     7       4    3    3    0
 20      1     6       2    6    0    7
         2     8       1    5    0    6
         3     9       1    5    0    5
 21      1     1       8   10    0    7
         2     2       6    7    0    3
         3     5       3    5    0    3
 22      1     0       0    0    0    0
************************************************************************
RESOURCEAVAILABILITIES:
  R 1  R 2  N 1  N 2
   26   26   33   55
************************************************************************
MAXIMAL LAGS:
from  to  type  delay
    1   12   ES      0
    1    2   ES      0
    2   12   ES      0
    1    3   ES      0
    3   12   ES      0
    1    4   ES      0
    4   12   ES      0
    1    5   ES      0
    5   12   ES      0
    1    6   ES      0
    6   12   ES      0
    1    7   ES      0
    7   12   ES      0
    1    8   ES      0
    8   12   ES      0
    1    9   ES      0
    9   12   ES      0
    1   10   ES      0
   10   12   ES      0
    1   11   ES      0
   11   12   ES      0
    1   12   ES      0
    2    6   SS      5
    2    6   SE     -3
    2    6   ES     -7
    2    6   EE     -6
    3    5   SS     -7
    3    5   SE     10
    3    5   ES      9
    3    5   EE      0
    4    7   SS     -6
    4    7   SE     -2
    4    7   ES     -1
    4    7   EE     -4
    4   13   SS      1
    4   13   SE      7
    4   13   ES      9
    4   13   EE    -11
    4   18   SS     -6
    4   18   SE     -6
    4   18   ES     10
    4   18   EE      0
    5    7   SS     11
    5    7   SE      6
    5    7   ES     10
    5    7   EE     -6
    5   11   SS    -10
    5   11   SE    -11
    5   11   ES     -2
    5   11   EE      2
    5   13   SS    -10
    5   13   SE      6
    5   13   ES      2
    5   13   EE     -5
    6    7   SS     -7
    6    7   SE     -6
    6    7   ES     10
    6    7   EE      5
    6    8   SS     -9
    6    8   SE     -1
    6    8   ES     -3
    6    8   EE     -2
    6   10   SS     -2
    6   10   SE     -8
    6   10   ES      2
    6   10   EE      5
    7   14   SS     11
    7   14   SE      3
    7   14   ES      1
    7   14   EE      8
    7   15   SS     12
    7   15   SE     -7
    7   15   ES      8
    7   15   EE      0
    8    9   SS    -12
    8    9   SE     -7
    8    9   ES     -6
    8    9   EE     -2
    8   20   SS      1
    8   20   SE     -3
    8   20   ES    -12
    8   20   EE      9
    8   21   SS      6
    8   21   SE     -5
    8   21   ES    -12
    8   21   EE      7
    9   18   SS      7
    9   18   SE     12
    9   18   ES      7
    9   18   EE      5
   10   14   SS      1
   10   14   SE      4
   10   14   ES      7
   10   14   EE    -10
   10   16   SS      7
   10   16   SE     11
   10   16   ES     -1
   10   16   EE    -12
   10   17   SS      3
   10   17   SE     10
   10   17   ES      5
   10   17   EE      1
   11   17   SS      3
   11   17   SE      6
   17   11   SE      0
   11   17   ES      0
   11   17   EE      6
   12   14   SS      6
   12   14   SE      7
   12   14   ES      6
   12   14   EE     -6
   12   18   SS      9
   12   18   SE      4
   12   18   ES     -9
   12   18   EE      6
   12   20   SS      8
   12   20   SE     -9
   12   20   ES      8
   12   20   EE      6
   13   21   SS     -3
   13   21   SE      5
   13   21   ES      9
   13   21   EE      2
   14   19   SS     -4
   14   19   SE      0
   14   19   ES     -9
   14   19   EE     -7
   15   16   SS     -5
   15   16   SE      9
   15   16   ES    -10
   15   16   EE      7
   15   17   SS     10
   15   17   SE      9
   15   17   ES    -12
   15   17   EE    -11
   16   20   SS     -8
   16   20   SE     -3
   16   20   ES    -10
   16   20   EE     -1
   16   21   SS     -2
   16   21   SE     -9
   16   21   ES      3
   16   21   EE     -2
   17   19   SS      4
   17   19   SE     12
   17   19   ES      0
   17   19   EE     -6
   18   19   SS      2
   18   19   SE     -6
   18   19   ES     -2
   18   19   EE     -6
   19   22   SS     -6
   19   22   SE     -7
   19   22   ES      3
   19   22   EE    -11
   20   22   SS     -8
   20   22   SE      4
   20   22   ES     12
   20   22   EE      6
   21   22   SS      7
   21   22   SE      0
   21   22   ES      1
   21   22   EE      1
************************************************************************
